certificates/rado_a13_c101_N36.cnf
c Rad2 upper bound instance: x1 + 13*x2 - x3 = 101, interval [1,36]
p cnf 36 198
1 4 8 0
-1 -4 -8 0
1 9 17 0
-1 -9 -17 0
1 10 30 0
-1 -10 -30 0
2 5 8 0
-2 -5 -8 0
2 9 18 0
-2 -9 -18 0
2 10 31 0
-2 -10 -31 0
3 6 8 0
-3 -6 -8 0
3 9 19 0
-3 -9 -19 0
3 10 32 0
-3 -10 -32 0
4 7 8 0
-4 -7 -8 0
4 9 20 0
-4 -9 -20 0
4 10 33 0
-4 -10 -33 0
5 8 0
-5 -8 0
5 9 21 0
-5 -9 -21 0
5 10 34 0
-5 -10 -34 0
6 8 9 0
-6 -8 -9 0
6 9 22 0
-6 -9 -22 0
6 10 35 0
-6 -10 -35 0
7 8 10 0
-7 -8 -10 0
7 9 23 0
-7 -9 -23 0
7 10 36 0
-7 -10 -36 0
8 11 0
-8 -11 0
8 9 24 0
-8 -9 -24 0
8 9 12 0
-8 -9 -12 0
9 25 0
-9 -25 0
8 10 13 0
-8 -10 -13 0
9 10 26 0
-9 -10 -26 0
1 7 11 0
-1 -7 -11 0
8 11 14 0
-8 -11 -14 0
9 11 27 0
-9 -11 -27 0
2 7 12 0
-2 -7 -12 0
8 12 15 0
-8 -12 -15 0
9 12 28 0
-9 -12 -28 0
3 7 13 0
-3 -7 -13 0
8 13 16 0
-8 -13 -16 0
9 13 29 0
-9 -13 -29 0
4 7 14 0
-4 -7 -14 0
8 14 17 0
-8 -14 -17 0
9 14 30 0
-9 -14 -30 0
5 7 15 0
-5 -7 -15 0
8 15 18 0
-8 -15 -18 0
9 15 31 0
-9 -15 -31 0
6 7 16 0
-6 -7 -16 0
8 16 19 0
-8 -16 -19 0
9 16 32 0
-9 -16 -32 0
7 17 0
-7 -17 0
8 17 20 0
-8 -17 -20 0
9 17 33 0
-9 -17 -33 0
7 8 18 0
-7 -8 -18 0
8 18 21 0
-8 -18 -21 0
9 18 34 0
-9 -18 -34 0
7 9 19 0
-7 -9 -19 0
8 19 22 0
-8 -19 -22 0
9 19 35 0
-9 -19 -35 0
7 10 20 0
-7 -10 -20 0
8 20 23 0
-8 -20 -23 0
9 20 36 0
-9 -20 -36 0
7 11 21 0
-7 -11 -21 0
8 21 24 0
-8 -21 -24 0
7 12 22 0
-7 -12 -22 0
8 22 25 0
-8 -22 -25 0
7 13 23 0
-7 -13 -23 0
8 23 26 0
-8 -23 -26 0
1 6 24 0
-1 -6 -24 0
7 14 24 0
-7 -14 -24 0
8 24 27 0
-8 -24 -27 0
2 6 25 0
-2 -6 -25 0
7 15 25 0
-7 -15 -25 0
8 25 28 0
-8 -25 -28 0
3 6 26 0
-3 -6 -26 0
7 16 26 0
-7 -16 -26 0
8 26 29 0
-8 -26 -29 0
4 6 27 0
-4 -6 -27 0
7 17 27 0
-7 -17 -27 0
8 27 30 0
-8 -27 -30 0
5 6 28 0
-5 -6 -28 0
7 18 28 0
-7 -18 -28 0
8 28 31 0
-8 -28 -31 0
6 29 0
-6 -29 0
7 19 29 0
-7 -19 -29 0
8 29 32 0
-8 -29 -32 0
6 7 30 0
-6 -7 -30 0
7 20 30 0
-7 -20 -30 0
8 30 33 0
-8 -30 -33 0
6 8 31 0
-6 -8 -31 0
7 21 31 0
-7 -21 -31 0
8 31 34 0
-8 -31 -34 0
6 9 32 0
-6 -9 -32 0
7 22 32 0
-7 -22 -32 0
8 32 35 0
-8 -32 -35 0
6 10 33 0
-6 -10 -33 0
7 23 33 0
-7 -23 -33 0
8 33 36 0
-8 -33 -36 0
6 11 34 0
-6 -11 -34 0
7 24 34 0
-7 -24 -34 0
6 12 35 0
-6 -12 -35 0
7 25 35 0
-7 -25 -35 0
6 13 36 0
-6 -13 -36 0
7 26 36 0
-7 -26 -36 0
