certificates/rado_a13_c101_N36.drat
8 -34 0
6 32 -8 -36 0
-8 -35 -36 0
10 8 -36 0
-35 -36 0
d -8 -35 -36 0
8 -10 -36 0
-10 -36 0
d 8 -10 -36 0
-36 0
-6 -2 -8 0
6 10 0
10 0
-8 0
5 0
11 0
33 0
-34 0
-4 0
-6 0
31 0
1 0
7 0
3 0
9 0
29 0
13 0
27 0
-2 0
-21 0
-30 0
0
